; benchmark generated from python API
(set-info :status unknown)
(declare-datatypes ((IntState 0)) (((Mk1 (val1 Int)) (Mk2 (val2 Int)))))
 (declare-fun c_main_~j~6 () Int)
(declare-fun c_main_~k~6 () Int)
(declare-fun c_main_~i~6 () Int)
(assert
 (let (($x111 (exists ((v_nnf_40_st IntState) (val!100 Int) )(let (($x11 (and (<= c_main_~k~6 (+ (val2 v_nnf_40_st) 2)) (<= (+ (* 2 (val2 v_nnf_40_st)) 1) c_main_~j~6) (<= 3 (val2 v_nnf_40_st)))))
 (let (($x52 (not (= v_nnf_40_st (Mk1 val!100)))))
 (and $x52 $x11))))
 ))
 (let ((?x51 (* 2 c_main_~i~6)))
 (let (($x122 (<= ?x51 c_main_~j~6)))
 (let (($x82 (<= 0 c_main_~i~6)))
 (let (($x16 (<= 1 c_main_~i~6)))
 (let (($x86 (<= 2 c_main_~i~6)))
 (let (($x65 (<= 3 c_main_~i~6)))
 (let (($x72 (and (<= c_main_~k~6 c_main_~i~6) (<= (+ ?x51 1) c_main_~j~6) $x65)))
 (and $x72 (not (and $x65 $x86 $x16 $x82 $x122 $x111))))))))))))
(check-sat)
